c File: instances/16_0.45_1.col
c
c Description: Random graph of size 16 vertices and P(0.44999999999999996) of edges between any two vertices.
p col 16 120
e 1 2
e 1 3
e 1 5
e 1 7
e 1 8
e 1 9
e 1 13
e 1 15
e 1 16
e 2 5
e 2 8
e 2 14
e 2 16
e 3 5
e 3 8
e 3 9
e 3 10
e 3 11
e 3 15
e 3 16
e 4 5
e 4 9
e 4 13
e 4 14
e 4 15
e 4 16
e 5 6
e 5 8
e 5 9
e 5 12
e 5 14
e 6 7
e 6 9
e 6 13
e 6 14
e 7 12
e 7 13
e 7 14
e 7 15
e 7 16
e 8 9
e 8 10
e 8 14
e 9 11
e 9 12
e 9 13
e 9 14
e 10 11
e 10 12
e 10 13
e 10 16
e 11 14
e 11 16
e 12 16
e 14 16
e 15 16